toybox/dimacs/toybox-2019-03-03_18-50-03.dimacs
c 1 CONFIG_HELP
c 2 CONFIG_DHCPD
c 3 CONFIG_START
c 4 CONFIG_TCPSVD
c 5 CONFIG_TAIL
c 6 CONFIG_ID_Z
c 7 CONFIG_TOYBOX_PRLIMIT
c 8 CONFIG_UNSHARE
c 9 CONFIG_EGREP
c 10 CONFIG_ID
c 11 CONFIG_RESTORECON
c 12 CONFIG_BOOTCHARTD
c 13 CONFIG_HELP_EXTRAS
c 14 CONFIG_KILL
c 15 CONFIG_TOYBOX_ICONV
c 16 CONFIG_LOG
c 17 CONFIG_MKE2FS_EXTENDED
c 18 CONFIG_CP_PRESERVE
c 19 CONFIG_TOYBOX_FIFREEZE
c 20 CONFIG_TOYBOX_MUSL_NOMMU_IS_BROKEN
c 21 CONFIG_MKE2FS_GEN
c 22 CONFIG_TOYBOX_SHADOW
c 23 CONFIG_SHA256SUM
c 24 CONFIG_LSPCI
c 25 CONFIG_TOYBOX_FORK
c 26 CONFIG_MKFIFO_Z
c 27 CONFIG_SHA224SUM
c 28 CONFIG_TOYBOX_CONTAINER
c 29 CONFIG_TOYBOX_UID_USR
c 30 CONFIG_NETCAT_LISTEN
c 31 CONFIG_MKE2FS_LABEL
c 32 CONFIG_NSENTER
c 33 CONFIG_SEQ
c 34 CONFIG_SORT_FLOAT
c 35 CONFIG_SU
c 36 CONFIG_CD
c 37 CONFIG_TOYBOX_ANDROID_SCHEDPOLICY
c 38 CONFIG_TIMEOUT
c 39 CONFIG_SETPROP
c 40 CONFIG_PASSWD_SAD
c 41 CONFIG_GETPROP
c 42 CONFIG_UPTIME
c 43 CONFIG_CRONTAB
c 44 CONFIG_MKDIR
c 45 CONFIG_TOYBOX
c 46 CONFIG_TOYBOX_UTMPX
c 47 CONFIG_SLEEP
c 48 CONFIG_TOYBOX_FALLOCATE
c 49 CONFIG_KILLALL5
c 50 CONFIG_MDEV
c 51 CONFIG_TOYBOX_HELP_DASHDASH
c 52 __Root__
c 53 CONFIG_CHCON
c 54 CONFIG_TOYBOX_LIBCRYPTO
c 55 CONFIG_W
c 56 CONFIG_TIME
c 57 CONFIG_KLOGD_SOURCE_RING_BUFFER
c 58 CONFIG_SULOGIN
c 59 CONFIG_FGREP
c 60 CONFIG_SENDEVENT
c 61 CONFIG_MDEV_CONF
c 62 CONFIG_NBD_CLIENT
c 63 CONFIG_LOAD_POLICY
c 64 CONFIG_MKDIR_Z
c 65 CONFIG_SLEEP_FLOAT
c 66 CONFIG_TOYBOX_UID_SYS
c 67 CONFIG_SETENFORCE
c 68 CONFIG_LOGIN
c 69 CONFIG_ULIMIT
c 70 CONFIG_FSFREEZE
c 71 CONFIG_MKNOD_Z
c 72 CONFIG_XARGS_PEDANTIC
c 73 CONFIG_GREP
c 74 CONFIG_WHO
c 75 CONFIG_CP
c 76 CONFIG_TAIL_SEEK
c 77 CONFIG_RUNCON
c 78 CONFIG_LSPCI_TEXT
c 79 CONFIG_TOYBOX_LSM_NONE
c 80 CONFIG_XARGS
c 81 CONFIG_CAT
c 82 CONFIG_TOYBOX_SELINUX
c 83 CONFIG_KLOGD
c 84 CONFIG_MKE2FS
c 85 CONFIG_OPENVT
c 86 CONFIG_ICONV
c 87 CONFIG_GETENFORCE
c 88 CONFIG_MKNOD
c 89 CONFIG_TOYBOX_HELP
c 90 CONFIG_TOYBOX_FLOAT
c 91 CONFIG_PASSWD
c 92 CONFIG_FALLOCATE
c 93 CONFIG_MKPASSWD
c 94 CONFIG_EXIT
c 95 CONFIG_NETCAT
c 96 CONFIG_SHA384SUM
c 97 CONFIG_MKFIFO
c 98 CONFIG_TOYBOX_ON_ANDROID
c 99 CONFIG_TOYBOX_SMACK
c 100 CONFIG_MKE2FS_JOURNAL
c 101 CONFIG_SHA512SUM
c 102 CONFIG_CAT_V
c 103 CONFIG_DEBUG_DHCP
c 104 CONFIG_TOYBOX_GETRANDOM
c 105 CONFIG_STOP
p cnf 105 207
52 0
52 -86 0
52 -15 0
52 -77 0
52 -82 0
52 -101 0
52 -54 0
52 -84 0
52 -100 0
52 -7 0
52 -69 0
52 -74 0
52 -46 0
52 -36 0
52 -23 0
52 -22 0
52 -68 0
52 -44 0
52 -64 0
52 -11 0
52 -67 0
52 -71 0
52 -79 0
52 -21 0
52 -88 0
52 -25 0
52 -12 0
52 -80 0
52 -72 0
52 -55 0
52 -91 0
52 -40 0
52 -60 0
52 -98 0
52 -5 0
52 -76 0
52 -78 0
52 -24 0
52 -89 0
52 -1 0
52 -90 0
52 -65 0
52 -93 0
52 -48 0
52 -92 0
52 -37 0
52 -26 0
52 -31 0
52 -41 0
52 -99 0
52 -87 0
52 -39 0
52 -6 0
52 -32 0
52 -28 0
52 -58 0
52 -85 0
52 -33 0
52 -47 0
52 -45 0
52 -97 0
52 -8 0
52 -38 0
52 -66 0
52 -20 0
52 -10 0
52 -3 0
52 -17 0
52 -94 0
52 -13 0
52 -62 0
52 -75 0
52 -18 0
52 -4 0
52 -70 0
52 -19 0
52 -2 0
52 -103 0
52 -63 0
52 -16 0
52 -35 0
52 -9 0
52 -73 0
52 -95 0
52 -30 0
52 -34 0
52 -51 0
52 -53 0
52 -27 0
52 -105 0
52 -59 0
52 -104 0
52 -42 0
52 -83 0
52 -57 0
52 -102 0
52 -81 0
52 -14 0
52 -49 0
52 -96 0
52 -56 0
52 -43 0
52 -29 0
52 -61 0
52 -50 0
-86 15 0
-77 82 0
-101 54 0
84 -100 0
7 -69 0
-74 46 0
-36 0
-23 54 0
22 -68 0
44 -64 0
82 -11 0
82 -67 0
15 0
-71 -79 0
7 0
84 -21 0
71 -88 79 0
25 -12 0
80 -72 0
-55 46 0
91 -40 0
-60 98 0
5 -76 0
-78 24 0
89 -1 0
90 -65 0
-93 -98 0
48 -92 0
-37 0
-26 -79 0
84 -31 0
-41 82 0
82 79 99 0
82 -87 0
-39 98 0
-6 -79 0
-32 28 0
22 -58 0
-85 25 0
-33 90 0
-90 -47 65 0
45 0
97 -26 0
-8 28 0
-41 82 98 0
-38 90 0
66 0
-25 -20 0
-6 10 0
-3 98 0
-17 84 0
-94 0
45 -13 1 0
6 -10 79 0
25 -62 0
-82 -79 0
22 0
75 -18 0
25 -4 0
-70 19 0
-98 0
2 -103 0
-63 82 0
19 0
98 -16 0
-97 26 79 0
22 -35 0
9 -73 0
-41 98 0
95 -30 0
-90 34 0
25 20 0
-9 73 0
89 -51 0
45 -13 0
82 -53 0
-79 -99 0
-28 0
-27 54 0
-13 1 0
-82 -99 0
46 0
98 -105 0
-59 73 0
-64 -79 0
59 -73 0
104 0
-42 46 0
83 -57 0
48 0
-102 81 0
14 -49 0
-44 64 79 0
22 -91 0
-96 54 0
90 -34 0
-71 88 0
90 -56 0
25 -43 0
29 0
47 -65 0
-61 50 0
